0
Node Left Objective IInf Best_Integer Best_Bound ItCnt Gap
0+ 0 nan nan 1364.7233 0.0000 nan 100.00%
0 0 707.7725 9 1364.7233 707.7725 13 48.14%
0+ 0 nan nan 1256.1229 707.7725 nan 43.65%
0 0 707.7725 9 1256.1229 Flowcuts:2 17 43.65%
0 0 707.7725 9 1256.1229 Flowcuts:4 25 43.65%
0+ 0 nan nan 1201.2359 707.7725 nan 41.08%
0+ 0 nan nan 1026.9742 707.7725 nan 31.08%
0 2 707.7725 9 1026.9742 707.7725 25 31.08%
CPXPARAM_MIP_Cuts_FlowCovers 4
1
Node Left Objective IInf Best_Integer Best_Bound ItCnt Gap
0+ 0 nan nan 1364.7233 0.0000 nan 100.00%
0 0 0 707.7725 707.7725 13 0.00% 0
CPXPARAM_MIP_Cuts_FlowCovers 0
2
Node Left Objective IInf Best_Integer Best_Bound ItCnt Gap
0+ 0 nan nan 1364.7233 0.0000 nan 100.00%
0 0 707.7725 9 1364.7233 707.7725 13 48.14%
0+ 0 nan nan 1256.1229 707.7725 nan 43.65%
0 0 707.7725 9 1256.1229 Flowcuts:3 19 43.65%
0 0 707.7725 9 1256.1229 Flowcuts:2 23 43.65%
0+ 0 nan nan 1101.4436 707.7725 nan 35.74%
0 2 707.7725 9 1101.4436 707.7725 23 35.74%
CPXPARAM_MIP_Cuts_FlowCovers 3
3
Node Left Objective IInf Best_Integer Best_Bound ItCnt Gap
0+ 0 nan nan 1364.7233 0.0000 nan 100.00%
0 0 0 742.0876 742.0876 12 0.00% 0
CPXPARAM_MIP_Cuts_FlowCovers 0
4
Node Left Objective IInf Best_Integer Best_Bound ItCnt Gap
0+ 0 nan nan 1151.9244 0.0000 nan 100.00%
0 0 804.5059 9 1151.9244 804.5059 12 30.16%
0+ 0 nan nan 1141.1136 804.5059 nan 29.50%
0 0 804.5059 9 1141.1136 Flowcuts:4 16 29.50%
0 0 804.5059 9 1141.1136 Flowcuts:4 20 29.50%
0+ 0 nan nan 919.5507 804.5059 nan 12.51%
0 2 804.5059 9 919.5507 804.5059 20 12.51%
CPXPARAM_MIP_Cuts_FlowCovers 2
5
Node Left Objective IInf Best_Integer Best_Bound ItCnt Gap
0+ 0 nan nan 1151.9244 0.0000 nan 100.00%
0 0 0 804.5059 804.5059 12 0.00% 0
CPXPARAM_MIP_Cuts_FlowCovers 0
6
Node Left Objective IInf Best_Integer Best_Bound ItCnt Gap
0+ 0 nan nan 1151.9244 0.0000 nan 100.00%
0 0 804.5059 9 1151.9244 804.5059 12 30.16%
0+ 0 nan nan 1141.1136 804.5059 nan 29.50%
0 0 804.5059 9 1141.1136 Flowcuts:2 16 29.50%
0 0 804.5059 9 1141.1136 Flowcuts:2 20 29.50%
0+ 0 nan nan 1097.3048 804.5059 nan 26.68%
0+ 0 nan nan 1094.8343 804.5059 nan 26.52%
0+ 0 nan nan 1040.9320 804.5059 nan 22.71%
0 2 804.5059 9 1040.9320 804.5059 20 22.71%
CPXPARAM_MIP_Cuts_FlowCovers 3
7
Node Left Objective IInf Best_Integer Best_Bound ItCnt Gap
0+ 0 nan nan 1151.9244 0.0000 nan 100.00%
0 0 0 804.5059 804.5059 12 0.00% 0
CPXPARAM_MIP_Cuts_FlowCovers 0
8
Node Left Objective IInf Best_Integer Best_Bound ItCnt Gap
0+ 0 nan nan 1316.0374 0.0000 nan 100.00%
0 0 989.3200 9 1316.0374 989.3200 12 24.83%
0+ 0 nan nan 1297.4734 989.3200 nan 23.75%
0 0 989.3200 9 1297.4734 Flowcuts:2 14 23.75%
0 0 989.3200 9 1297.4734 Flowcuts:3 18 23.75%
0+ 0 nan nan 1148.2856 989.3200 nan 13.84%
0 2 989.3200 9 1148.2856 989.3200 18 13.84%
CPXPARAM_MIP_Cuts_FlowCovers 3
9
Node Left Objective IInf Best_Integer Best_Bound ItCnt Gap
0+ 0 nan nan 1316.0374 0.0000 nan 100.00%
0 0 0 989.3200 989.3200 12 0.00% 0
CPXPARAM_MIP_Cuts_FlowCovers 0
10
Node Left Objective IInf Best_Integer Best_Bound ItCnt Gap
0+ 0 nan nan 1316.0374 0.0000 nan 100.00%
0 0 989.3200 9 1316.0374 989.3200 12 24.83%
0+ 0 nan nan 1297.4734 989.3200 nan 23.75%
0 0 989.3200 9 1297.4734 Flowcuts:1 14 23.75%
0 0 989.3200 9 1297.4734 Flowcuts:3 18 23.75%
0+ 0 nan nan 1144.3988 989.3200 nan 13.55%
0 2 989.3200 9 1144.3988 989.3200 18 13.55%
CPXPARAM_MIP_Cuts_FlowCovers 3
11
Node Left Objective IInf Best_Integer Best_Bound ItCnt Gap
0+ 0 nan nan 1316.0374 0.0000 nan 100.00%
0 0 0 989.3200 989.3200 12 0.00% 0
CPXPARAM_MIP_Cuts_FlowCovers 0
12
Node Left Objective IInf Best_Integer Best_Bound ItCnt Gap
0+ 0 nan nan 1103.5671 0.0000 nan 100.00%
0 0 805.3814 9 1103.5671 805.3814 12 27.02%
0 0 805.3814 9 1103.5671 Flowcuts:2 16 27.02%
0 0 805.3814 9 1103.5671 Flowcuts:2 20 27.02%
0+ 0 nan nan 1011.1354 805.3814 nan 20.35%
0 2 805.3814 9 1011.1354 805.3814 20 20.35%
CPXPARAM_MIP_Cuts_FlowCovers 2
13
Node Left Objective IInf Best_Integer Best_Bound ItCnt Gap
0+ 0 nan nan 1103.5671 0.0000 nan 100.00%
0 0 0 805.3814 805.3814 13 0.00% 0
CPXPARAM_MIP_Cuts_FlowCovers 0
14
Node Left Objective IInf Best_Integer Best_Bound ItCnt Gap
0+ 0 nan nan 1103.5671 0.0000 nan 100.00%
0 0 805.3814 9 1103.5671 805.3814 13 27.02%
0 0 805.3814 9 1103.5671 Flowcuts:2 17 27.02%
0 0 805.3814 9 1103.5671 Flowcuts:1 19 27.02%
0+ 0 nan nan 1017.7918 805.3814 nan 20.87%
0+ 0 nan nan 1015.7538 805.3814 nan 20.71%
0+ 0 nan nan 1002.2020 805.3814 nan 19.64%
0 2 805.3814 9 1002.2020 805.3814 19 19.64%
CPXPARAM_MIP_Cuts_FlowCovers 3
15
Node Left Objective IInf Best_Integer Best_Bound ItCnt Gap
0+ 0 nan nan 1103.5671 0.0000 nan 100.00%
0 0 0 805.3814 805.3814 13 0.00% 0
CPXPARAM_MIP_Cuts_FlowCovers 0
16
Node Left Objective IInf Best_Integer Best_Bound ItCnt Gap
0+ 0 nan nan 1092.9842 0.0000 nan 100.00%
0 0 876.8822 9 1092.9842 876.8822 11 19.77%
0+ 0 nan nan 1089.1526 876.8822 nan 19.49%
0 0 876.8822 9 1089.1526 Flowcuts:2 15 19.49%
0 0 876.8822 9 1089.1526 Flowcuts:1 17 19.49%
0+ 0 nan nan 971.2909 876.8822 nan 9.72%
0 2 876.8822 8 971.2909 876.8822 17 9.72%
CPXPARAM_MIP_Cuts_FlowCovers 3
17
Node Left Objective IInf Best_Integer Best_Bound ItCnt Gap
0+ 0 nan nan 1092.9842 0.0000 nan 100.00%
0 0 0 876.8822 876.8822 10 0.00% 0
CPXPARAM_MIP_Cuts_FlowCovers 0
18
Node Left Objective IInf Best_Integer Best_Bound ItCnt Gap
0+ 0 nan nan 1092.9842 0.0000 nan 100.00%
0 0 876.8822 9 1092.9842 876.8822 11 19.77%
0+ 0 nan nan 1089.1526 876.8822 nan 19.49%
0 0 876.8822 9 1089.1526 Flowcuts:5 15 19.49%
0 0 876.8822 9 1089.1526 Flowcuts:1 17 19.49%
0+ 0 nan nan 970.3478 876.8822 nan 9.63%
0 2 876.8822 8 970.3478 876.8822 17 9.63%
CPXPARAM_MIP_Cuts_FlowCovers 3
19
Node Left Objective IInf Best_Integer Best_Bound ItCnt Gap
0+ 0 nan nan 1092.9842 0.0000 nan 100.00%
0 0 0 876.8822 876.8822 10 0.00% 0
CPXPARAM_MIP_Cuts_FlowCovers 0
20
Node Left Objective IInf Best_Integer Best_Bound ItCnt Gap
0+ 0 nan nan 933.7925 0.0000 nan 100.00%
0 0 586.9854 9 933.7925 586.9854 12 37.14%
0+ 0 nan nan 921.6569 586.9854 nan 36.31%
0 0 586.9854 9 921.6569 Flowcuts:5 16 36.31%
0+ 0 nan nan 704.4991 586.9854 nan 16.68%
0 2 586.9854 7 704.4991 586.9854 16 16.68%
CPXPARAM_MIP_Cuts_FlowCovers 2
21
Node Left Objective IInf Best_Integer Best_Bound ItCnt Gap
0+ 0 nan nan 933.7925 0.0000 nan 100.00%
0 0 0 586.9854 586.9854 12 0.00% 0
CPXPARAM_MIP_Cuts_FlowCovers 0
22
Node Left Objective IInf Best_Integer Best_Bound ItCnt Gap
0+ 0 nan nan 933.7925 0.0000 nan 100.00%
0 0 586.9854 9 933.7925 586.9854 12 37.14%
0+ 0 nan nan 921.6569 586.9854 nan 36.31%
0 0 586.9854 9 921.6569 Flowcuts:4 16 36.31%
0 0 586.9854 9 921.6569 Flowcuts:5 26 36.31%
0+ 0 nan nan 921.2752 586.9854 nan 36.29%
0+ 0 nan nan 857.1291 586.9854 nan 31.52%
0 2 586.9854 9 857.1291 586.9854 26 31.52%
CPXPARAM_MIP_Cuts_FlowCovers 2
23
Node Left Objective IInf Best_Integer Best_Bound ItCnt Gap
0+ 0 nan nan 933.7925 0.0000 nan 100.00%
0 0 0 588.1816 588.1816 12 0.00% 0
CPXPARAM_MIP_Cuts_FlowCovers 0
24
Node Left Objective IInf Best_Integer Best_Bound ItCnt Gap
0+ 0 nan nan 945.0450 0.0000 nan 100.00%
0 0 691.3327 9 945.0450 691.3327 13 26.85%
0+ 0 nan nan 939.6644 691.3327 nan 26.43%
0 0 691.3327 9 939.6644 Flowcuts:1 15 26.43%
0 0 691.3327 9 939.6644 Flowcuts:1 19 26.43%
0+ 0 nan nan 835.6038 691.3327 nan 17.27%
0 2 691.3327 9 835.6038 691.3327 19 17.27%
CPXPARAM_MIP_Cuts_FlowCovers 1
25
Node Left Objective IInf Best_Integer Best_Bound ItCnt Gap
0+ 0 nan nan 945.0450 0.0000 nan 100.00%
0 0 0 691.3327 691.3327 13 0.00% 0
CPXPARAM_MIP_Cuts_FlowCovers 0
26
Node Left Objective IInf Best_Integer Best_Bound ItCnt Gap
0+ 0 nan nan 945.0450 0.0000 nan 100.00%
0 0 691.3794 8 945.0450 691.3794 14 26.84%
0+ 0 nan nan 938.3845 691.3794 nan 26.32%
0+ 0 nan nan 935.6367 691.3794 nan 26.11%
0+ 0 nan nan 835.2781 691.3794 nan 17.23%
0 2 691.3794 8 835.2781 691.3794 14 17.23%
CPXPARAM_MIP_Cuts_FlowCovers 0
27
Node Left Objective IInf Best_Integer Best_Bound ItCnt Gap
0+ 0 nan nan 945.0450 0.0000 nan 100.00%
0 0 0 691.3327 691.3327 14 0.00% 0
CPXPARAM_MIP_Cuts_FlowCovers 0
28
Node Left Objective IInf Best_Integer Best_Bound ItCnt Gap
0+ 0 nan nan 1337.0922 0.0000 nan 100.00%
0 0 1047.8755 8 1337.0922 1047.8755 13 21.63%
0+ 0 nan nan 1259.7351 1047.8755 nan 16.82%
0+ 0 nan nan 1141.0900 1047.8755 nan 8.17%
0 2 1047.8755 8 1141.0900 1047.8755 13 8.17%
CPXPARAM_MIP_Cuts_FlowCovers 0
29
Node Left Objective IInf Best_Integer Best_Bound ItCnt Gap
0+ 0 nan nan 1337.0922 0.0000 nan 100.00%
0 0 0 1047.8755 1047.8755 12 0.00% 0
CPXPARAM_MIP_Cuts_FlowCovers 0
30
Node Left Objective IInf Best_Integer Best_Bound ItCnt Gap
0+ 0 nan nan 1337.0922 0.0000 nan 100.00%
0 0 1047.8755 9 1337.0922 1047.8755 12 21.63%
0+ 0 nan nan 1316.0757 1047.8755 nan 20.38%
0 0 1047.8755 9 1316.0757 Flowcuts:10 22 20.38%
0+ 0 nan nan 1307.8994 1047.8755 nan 19.88%
0 0 1047.8755 9 1307.8994 Flowcuts:1 24 19.88%
0+ 0 nan nan 1283.1855 1047.8755 nan 18.34%
0 2 1047.8755 9 1283.1855 1047.8755 24 18.34%
CPXPARAM_MIP_Cuts_FlowCovers 4
31
Node Left Objective IInf Best_Integer Best_Bound ItCnt Gap
0+ 0 nan nan 1337.0922 0.0000 nan 100.00%
0 0 0 1047.8755 1047.8755 12 0.00% 0
CPXPARAM_MIP_Cuts_FlowCovers 0
32
Node Left Objective IInf Best_Integer Best_Bound ItCnt Gap
0+ 0 nan nan 1107.0587 0.0000 nan 100.00%
0 0 690.4898 9 1107.0587 690.4898 12 37.63%
0+ 0 nan nan 1030.0515 690.4898 nan 32.97%
0 0 690.4898 9 1030.0515 Flowcuts:8 22 32.97%
0 0 690.4898 9 1030.0515 Flowcuts:4 28 32.97%
0+ 0 nan nan 917.8612 690.4898 nan 24.77%
0+ 0 nan nan 908.7893 690.4898 nan 24.02%
0 2 690.4898 9 908.7893 690.4898 28 24.02%
CPXPARAM_MIP_Cuts_FlowCovers 5
33
Node Left Objective IInf Best_Integer Best_Bound ItCnt Gap
0+ 0 nan nan 1107.0587 0.0000 nan 100.00%
0 0 0 690.4898 690.4898 12 0.00% 0
CPXPARAM_MIP_Cuts_FlowCovers 0
34
Node Left Objective IInf Best_Integer Best_Bound ItCnt Gap
0+ 0 nan nan 1107.0587 0.0000 nan 100.00%
0 0 690.4898 9 1107.0587 690.4898 12 37.63%
0+ 0 nan nan 1030.0515 690.4898 nan 32.97%
0 0 690.4898 9 1030.0515 Flowcuts:7 20 32.97%
0 0 690.4898 9 1030.0515 Flowcuts:4 24 32.97%
0+ 0 nan nan 1001.8350 690.4898 nan 31.08%
0+ 0 nan nan 923.2876 690.4898 nan 25.21%
0 2 690.4898 9 923.2876 690.4898 24 25.21%
CPXPARAM_MIP_Cuts_FlowCovers 3
35
Node Left Objective IInf Best_Integer Best_Bound ItCnt Gap
0+ 0 nan nan 1107.0587 0.0000 nan 100.00%
0 0 0 690.4898 690.4898 12 0.00% 0
CPXPARAM_MIP_Cuts_FlowCovers 0
36
Node Left Objective IInf Best_Integer Best_Bound ItCnt Gap
0+ 0 nan nan 1237.1346 0.0000 nan 100.00%
0 0 813.3288 9 1237.1346 813.3288 13 34.26%
0+ 0 nan nan 1129.0032 813.3288 nan 27.96%
0 0 813.3288 9 1129.0032 Flowcuts:4 15 27.96%
0 0 813.3288 9 1129.0032 Flowcuts:5 19 27.96%
0+ 0 nan nan 998.6758 813.3288 nan 18.56%
0 2 813.3288 9 998.6758 813.3288 19 18.56%
CPXPARAM_MIP_Cuts_FlowCovers 3
37
Node Left Objective IInf Best_Integer Best_Bound ItCnt Gap
0+ 0 nan nan 1237.1346 0.0000 nan 100.00%
0 0 0 813.3288 813.3288 12 0.00% 0
CPXPARAM_MIP_Cuts_FlowCovers 0
38
Node Left Objective IInf Best_Integer Best_Bound ItCnt Gap
0+ 0 nan nan 1237.1346 0.0000 nan 100.00%
0 0 813.3288 9 1237.1346 813.3288 12 34.26%
0+ 0 nan nan 1129.0032 813.3288 nan 27.96%
0 0 813.3288 9 1129.0032 Flowcuts:3 18 27.96%
0 0 813.3288 9 1129.0032 Flowcuts:2 22 27.96%
0+ 0 nan nan 973.2548 813.3288 nan 16.43%
0 2 813.3288 9 973.2548 813.3288 22 16.43%
CPXPARAM_MIP_Cuts_FlowCovers 4
39
Node Left Objective IInf Best_Integer Best_Bound ItCnt Gap
0+ 0 nan nan 1237.1346 0.0000 nan 100.00%
0 0 0 813.3288 813.3288 13 0.00% 0
CPXPARAM_MIP_Cuts_FlowCovers 0
